x = 24;
y = 15;
c = 60;
n = 48;

p = [62  60  15  66  29  73  84  10  57  19  23  69  80  88  49  46  81  91  93  68  80  82  51  89  54  98  30  29  65  34  74  68  71  95  23  46  27  94  77  94  28  63  33  84  75  39  43  88];
w = [4  7  10  9  5  2  10  10  7  10  4  10  1  2  9  10  8  9  2  1  3  3  10  7  2  2  2  7  8  6  7  8  9  2  10  6  10  10  4  7  4  5  7  5  5  4  6  1];
s = [6  9  14  13  3  3  11  7  14  5  5  13  8  5  6  13  3  1  14  12  12  12  5  11  7  6  5  14  10  7  15  7  10  14  6  15  5  8  7  15  11  2  3  15  1  11  5  15];
